p wcnf 138 207 208 
1 69 -8 0 
1 85 -40 0 
1 -52 119 0 
1 -104 26 0 
1 8 30 0 
1 -27 24 0 
1 136 132 0 
1 -81 -107 0 
1 -85 87 0 
1 -91 -111 0 
1 -70 49 0 
1 132 -63 0 
1 -74 20 0 
1 70 10 0 
1 20 -16 0 
1 98 95 0 
1 -7 -79 0 
1 -78 97 0 
1 111 20 0 
1 103 4 0 
1 -99 -70 0 
1 138 48 0 
1 -13 -67 0 
1 74 -40 0 
1 -26 -82 0 
1 116 -126 0 
1 -40 -88 0 
1 92 74 0 
1 49 2 0 
1 -40 115 0 
1 -68 123 0 
1 -25 87 0 
1 -112 -138 0 
1 -91 50 0 
1 130 -74 0 
1 -68 12 0 
1 -71 -83 0 
1 -57 -39 0 
1 -91 65 0 
1 -121 96 0 
1 26 130 0 
1 12 -117 0 
1 -138 62 0 
1 54 42 0 
1 128 41 0 
1 -29 -129 0 
1 -86 -28 0 
1 31 -2 0 
1 -33 -28 0 
1 107 109 0 
1 27 -15 0 
1 36 -40 0 
1 -49 61 0 
1 111 37 0 
1 107 18 0 
1 -9 118 0 
1 118 100 0 
1 -80 12 0 
1 -9 -67 0 
1 44 18 0 
1 -68 -133 0 
1 7 96 0 
1 54 131 0 
1 -28 126 0 
1 -127 51 0 
1 -47 71 0 
1 -127 -117 0 
1 66 64 0 
1 -138 32 0 
1 48 112 0 
1 -72 102 0 
1 109 75 0 
1 125 -124 0 
1 127 -83 0 
1 -56 -81 0 
1 35 -74 0 
1 3 -55 0 
1 -38 91 0 
1 -58 4 0 
1 103 -47 0 
1 -71 88 0 
1 96 62 0 
1 56 -26 0 
1 125 -107 0 
1 -41 95 0 
1 136 121 0 
1 -130 92 0 
1 100 27 0 
1 7 -38 0 
1 -69 -76 0 
1 -22 55 0 
1 89 83 0 
1 -118 29 0 
1 -14 61 0 
1 -69 -58 0 
1 44 75 0 
1 -31 -88 0 
1 23 -58 0 
1 -121 -104 0 
1 128 79 0 
1 -102 -106 0 
1 18 -34 0 
1 32 81 0 
1 -128 -19 0 
1 31 12 0 
1 -4 89 0 
1 29 17 0 
1 -51 -109 0 
1 -30 -104 0 
1 -39 26 0 
1 -126 -112 0 
1 -31 119 0 
1 72 -2 0 
1 -103 -57 0 
1 100 -128 0 
1 93 -20 0 
1 -62 129 0 
1 127 -109 0 
1 105 -136 0 
1 11 3 0 
1 54 105 0 
1 110 57 0 
1 -15 -58 0 
1 -108 43 0 
1 -63 100 0 
1 -35 62 0 
1 -54 -31 0 
1 15 -60 0 
1 1 60 0 
1 -57 -94 0 
1 94 14 0 
1 104 -38 0 
1 -56 -47 0 
1 54 -131 0 
1 -135 67 0 
1 63 -4 0 
1 -40 -105 0 
1 -127 50 0 
1 -138 -111 0 
1 -113 -68 0 
1 60 -28 0 
1 -55 -19 0 
1 8 59 0 
1 6 -3 0 
1 25 -131 0 
1 52 122 0 
1 86 103 0 
1 31 131 0 
1 -46 138 0 
1 -3 -7 0 
1 50 80 0 
1 56 -104 0 
1 58 -28 0 
1 -66 -10 0 
1 54 127 0 
1 -71 -54 0 
1 11 -132 0 
1 62 -88 0 
1 40 -8 0 
1 -137 19 0 
1 -89 -114 0 
1 28 85 0 
1 -19 -17 0 
1 34 -114 0 
1 78 6 0 
1 -136 55 0 
1 124 -5 0 
1 -26 -61 0 
1 85 -62 0 
1 -14 59 0 
1 19 38 0 
1 -119 -112 0 
1 -43 -54 0 
1 -112 68 0 
1 -30 57 0 
1 -107 -41 0 
1 -26 105 0 
1 54 -11 0 
1 132 60 0 
1 31 137 0 
1 114 -55 0 
1 -26 47 0 
1 -117 -69 0 
1 -113 -65 0 
1 -88 96 0 
1 44 -73 0 
1 30 -67 0 
1 -74 -102 0 
1 43 -57 0 
1 -29 38 0 
1 -17 -121 0 
1 -43 74 0 
1 -114 138 0 
1 -51 93 0 
1 -99 -62 0 
1 127 77 0 
1 1 12 0 
1 -88 44 0 
1 96 27 0 
1 58 20 0 
1 35 -2 0 
1 73 -12 0 
1 29 -12 0 
1 -52 50 0 
1 -123 -121 0 
1 5 75 0 
1 106 -96 0 
